c This is QMaxSAT 2017 based on 14.07
c This is Glucose 3.0
c This is MiniSat 2.2.0
c WARNING: for repeatability, setting FPU to use double precision
c card = mrwto, comp = 0, pmodel = 0, narr = 3, mct = 52, verb = 0
cr firstCPXsol 0 0 0
c top = 1525567
c |  Number of variables:    138162                                           |
c |  Number of clauses:      160791429                                        |
c |  Weight of hard clauses: 1525567                                          |
c |  Number of soft clauses: 7956                                             |
c |  Number of unit soft clauses: 7956                                        |
c |  Maximum Cardinality (by unit): 4576698      (4576698     )               |
c last restart ## conflicts  :  0 2757 
o 8706 | cpuTime 15.1075 s
c Sum of weights = 1525566
c A number of soft clauses remained = 2652
c MRWTO encoding for Pseudo-Boolean Constraints
c sizeMax=8706
c No.0 Divisor=10	generated by pow1
c No.1 Divisor=10	generated by pow1
c No.2 Divisor=10	generated by pow1
c No.3 Divisor=10	generated by pow1
c p0= 10	p1= 10	p2= 10	p3= 10	
c number of digits = 5
c linkingVar[0].size = 10, linkingVar[1].size = 10, linkingVar[2].size = 10, linkingVar[3].size = 9, linkingVar[4].size = 1, 
c Pseudo-Boolean Constraints: 71664 variables and 639164 clauses
c Sum of weights = 1525566
c A number of soft clauses remained = 2652
c MRWTO encoding for Pseudo-Boolean Constraints
c sizeMax=8706
c No.0 Divisor=10	generated by pow1
c No.1 Divisor=10	generated by pow1
c No.2 Divisor=10	generated by pow1
c No.3 Divisor=10	generated by pow1
c p0= 10	p1= 10	p2= 10	p3= 10	
c number of digits = 5
c linkingVar[0].size = 10, linkingVar[1].size = 10, linkingVar[2].size = 10, linkingVar[3].size = 9, linkingVar[4].size = 1, 
c Pseudo-Boolean Constraints: 71664 variables and 639164 clauses
c Sum of weights = 1525566
c A number of soft clauses remained = 2652
c MRWTO encoding for Pseudo-Boolean Constraints
c sizeMax=8706
c No.0 Divisor=10	generated by pow1
c No.1 Divisor=10	generated by pow1
c No.2 Divisor=10	generated by pow1
c No.3 Divisor=10	generated by pow1
c p0= 10	p1= 10	p2= 10	p3= 10	
c number of digits = 5
c linkingVar[0].size = 10, linkingVar[1].size = 10, linkingVar[2].size = 10, linkingVar[3].size = 9, linkingVar[4].size = 1, 
c Pseudo-Boolean Constraints: 71664 variables and 639164 clauses
s UNKNOWN
c Search is stopped by a limit (maybe time-limit)
cr positiVarArr: [ | 2@1(1->2) | 55@1(2->3) | 108@1(3->4) | 161@1(4->5) | 214@1(5->6) | 267@1(6->7) | 320@1(7->8) | 373@1(8->9) | 426@1(9->10) | 479@1(10->11) | 532@1(11->12) | 585@1(12->13) | 638@1(13->14) | 691@1(14->15) | 744@1(15->16) | 797@1(16->17) | 850@1(17->18) | 885@1(18->1) | 2723@2(1->19) | 3660@2(19->20) | 3713@2(20->21) | 3766@2(21->22) | 3819@2(22->23) | 3872@2(23->24) | 3925@2(24->25) | 3978@2(25->26) | 4031@2(26->27) | 4084@2(27->28) | 4137@2(28->29) | 4190@2(29->30) | 4243@2(30->31) | 4296@2(31->32) | 4349@2(32->33) | 4402@2(33->34) | 4455@2(34->35) | 4473@2(35->1) | 5444@3(1->36) | 7265@3(36->37) | 7318@3(37->38) | 7371@3(38->39) | 7424@3(39->40) | 7477@3(40->41) | 7530@3(41->42) | 7583@3(42->43) | 7636@3(43->44) | 7689@3(44->45) | 7742@3(45->46) | 7795@3(46->47) | 7848@3(47->48) | 7901@3(48->49) | 7954@3(49->50) | 8007@3(50->51) | 8060@3(51->52) | 8061@3(52->1) | ]
cr the 1-th chain: [ 1->2->3->4->5->6->7->8->9->10->11->12->13->14->15->16->17->18->1 ] (#non-depot=17) {#cumul.=18}
cr the 2-th chain: [ 1->19->20->21->22->23->24->25->26->27->28->29->30->31->32->33->34->35->1 ] (#non-depot=17) {#cumul.=35}
cr the 3-th chain: [ 1->36->37->38->39->40->41->42->43->44->45->46->47->48->49->50->51->52->1 ] (#non-depot=17) {#cumul.=52}
c Latest Answer = 0 by 1 loops
c restarts              : 16209
c conflicts             : 7035246        (1969 /sec)
c decisions             : 142908857      (0.00 % random) (39994 /sec)
c propagations          : 12562105358    (3515576 /sec)
c conflict literals     : 5179962067     (4.80 % deleted)
c Memory used           : 14217.00 MB
c CPU time              : 3573.27 s
